HFSDDW
15	6	3
0	48	1	66	2	28
0	69	1	76	2	84
0	14	1	83	2	54
0	47	1	2	2	12
0	73	1	10	2	3
0	38	1	19	2	91
0	13	1	88	2	60
0	76	1	59	2	63
0	41	1	19	2	14
0	51	1	85	2	27
0	55	1	64	2	71
0	4	1	92	2	8
0	18	1	2	2	32
0	20	1	20	2	90
0	37	1	40	2	56
LBCmax: 385
RELDUE
-1	331	7	6
-1	310	9	3
-1	272	9	4
-1	316	4	7
-1	296	2	9
-1	290	2	2
-1	273	6	9
-1	319	7	7
-1	271	4	2
-1	279	1	6
-1	324	6	1
-1	274	9	5
-1	319	9	5
-1	290	1	7
-1	314	9	2
DDW
328	334
291	329
250	294
291	341
281	311
273	307
246	300
316	322
257	285
273	285
308	340
249	299
290	348
270	310
308	320
